XSym
0023
c9405c7c97f06ee57fcee7fb370f294a
Versions/Current/ClanGL
                                                                                                                                                                                                                                                                                                                                                                                                                                                                                                                                                                                                                                                                                                                                                                                                                                                                                                                                                                                                                                        